
Gurobi 9.0.1 (mac64, Java) logging started Wed Apr 21 12:35:23 2021

Academic license - for non-commercial use only
Gurobi Optimizer version 9.0.1 build v9.0.1rc0 (mac64)
Optimize a model with 36855 rows, 3585 columns and 109200 nonzeros
Model fingerprint: 0x3ef23d2b
Variable types: 0 continuous, 3585 integer (3585 binary)
Coefficient statistics:
  Matrix range     [1e+00, 1e+00]
  Objective range  [2e+00, 2e+02]
  Bounds range     [1e+00, 1e+00]
  RHS range        [1e+00, 2e+00]
Presolve removed 20020 rows and 2220 columns
Presolve time: 0.44s
Presolved: 16835 rows, 1365 columns, 50505 nonzeros
Variable types: 0 continuous, 1365 integer (1365 binary)
Found heuristic solution: objective 10758.000000
Found heuristic solution: objective 10694.000000
Found heuristic solution: objective 9263.0000000

Root relaxation: objective 6.305000e+03, 10037 iterations, 1.69 seconds

    Nodes    |    Current Node    |     Objective Bounds      |     Work
 Expl Unexpl |  Obj  Depth IntInf | Incumbent    BestBd   Gap | It/Node Time

*    0     0               0    6305.0000000 6305.00000  0.00%     -    2s

Explored 0 nodes (10037 simplex iterations) in 2.27 seconds
Thread count was 4 (of 4 available processors)

Solution count 4: 6305 9263 10694 10758 

Optimal solution found (tolerance 1.00e-04)
Best objective 6.305000000000e+03, best bound 6.305000000000e+03, gap 0.0000%

Gurobi 9.0.1 (mac64, Java) logging started Wed Apr 21 12:47:57 2021

Academic license - for non-commercial use only
Gurobi Optimizer version 9.0.1 build v9.0.1rc0 (mac64)
Optimize a model with 36855 rows, 3585 columns and 109200 nonzeros
Model fingerprint: 0x3ef23d2b
Variable types: 0 continuous, 3585 integer (3585 binary)
Coefficient statistics:
  Matrix range     [1e+00, 1e+00]
  Objective range  [2e+00, 2e+02]
  Bounds range     [1e+00, 1e+00]
  RHS range        [1e+00, 2e+00]
Presolve removed 20020 rows and 2220 columns
Presolve time: 0.49s
Presolved: 16835 rows, 1365 columns, 50505 nonzeros
Variable types: 0 continuous, 1365 integer (1365 binary)
Found heuristic solution: objective 10758.000000
Found heuristic solution: objective 10694.000000
Found heuristic solution: objective 9263.0000000

Root relaxation: objective 6.305000e+03, 10037 iterations, 1.58 seconds

    Nodes    |    Current Node    |     Objective Bounds      |     Work
 Expl Unexpl |  Obj  Depth IntInf | Incumbent    BestBd   Gap | It/Node Time

*    0     0               0    6305.0000000 6305.00000  0.00%     -    2s

Explored 0 nodes (10037 simplex iterations) in 2.21 seconds
Thread count was 4 (of 4 available processors)

Solution count 4: 6305 9263 10694 10758 

Optimal solution found (tolerance 1.00e-04)
Best objective 6.305000000000e+03, best bound 6.305000000000e+03, gap 0.0000%

Gurobi 9.0.1 (mac64, Java) logging started Wed Apr 21 12:57:49 2021

Academic license - for non-commercial use only
Gurobi Optimizer version 9.0.1 build v9.0.1rc0 (mac64)
Optimize a model with 36855 rows, 3585 columns and 109200 nonzeros
Model fingerprint: 0x3ef23d2b
Variable types: 0 continuous, 3585 integer (3585 binary)
Coefficient statistics:
  Matrix range     [1e+00, 1e+00]
  Objective range  [2e+00, 2e+02]
  Bounds range     [1e+00, 1e+00]
  RHS range        [1e+00, 2e+00]
Presolve removed 20020 rows and 2220 columns
Presolve time: 0.20s
Presolved: 16835 rows, 1365 columns, 50505 nonzeros
Variable types: 0 continuous, 1365 integer (1365 binary)
Found heuristic solution: objective 10758.000000
Found heuristic solution: objective 10694.000000
Found heuristic solution: objective 9263.0000000

Root relaxation: objective 6.305000e+03, 10037 iterations, 1.10 seconds

    Nodes    |    Current Node    |     Objective Bounds      |     Work
 Expl Unexpl |  Obj  Depth IntInf | Incumbent    BestBd   Gap | It/Node Time

*    0     0               0    6305.0000000 6305.00000  0.00%     -    1s

Explored 0 nodes (10037 simplex iterations) in 1.44 seconds
Thread count was 4 (of 4 available processors)

Solution count 4: 6305 9263 10694 10758 

Optimal solution found (tolerance 1.00e-04)
Best objective 6.305000000000e+03, best bound 6.305000000000e+03, gap 0.0000%
